50
100
99
99
95
94
94
93
91
90
86
81
81
80
79
77
74
69
69
63
55
54
54
53
52
50
44
40
39
38
37
36
36
36
36
34
31
31
26
25
23
22
18
17
15
14
13
12
10
7
2
1
